Gurobi Optimizer version 9.1.2 build v9.1.2rc0 (linux64)
Thread count: 36 physical cores, 72 logical processors, using up to 32 threads
Optimize a model with 12 rows, 57 columns and 590 nonzeros
Model fingerprint: 0xf32eec78
Model has 47 quadratic constraints
Coefficient statistics:
  Matrix range     [2e-05, 3e+00]
  QMatrix range    [1e+00, 1e+00]
  QLMatrix range   [1e+00, 1e+00]
  Objective range  [8e-03, 7e-01]
  Bounds range     [1e+00, 1e+00]
  RHS range        [1e+00, 1e+00]
Presolve removed 9 rows and 0 columns

Continuous model is non-convex -- solving as a MIP.

Presolve removed 9 rows and 0 columns
Presolve time: 0.00s
Presolved: 189 rows, 57 columns, 443 nonzeros
Presolved model has 47 bilinear constraint(s)
Variable types: 57 continuous, 0 integer (0 binary)

Root relaxation: objective -1.743721e+00, 44 iterations, 0.00 seconds

    Nodes    |    Current Node    |     Objective Bounds      |     Work
 Expl Unexpl |  Obj  Depth IntInf | Incumbent    BestBd   Gap | It/Node Time

     0     0   -1.74372    0   38          -   -1.74372      -     -    0s
H    0     0                       0.6147548   -1.74372   384%     -    0s
     0     0   -1.64739    0    1    0.61475   -1.64739   368%     -    0s
H    0     0                      -1.6450460   -1.64739  0.14%     -    0s
     0     0     cutoff    0        -1.64505   -1.64505  0.00%     -    0s

Cutting planes:
  RLT: 25
  BQP: 3

Explored 1 nodes (76 simplex iterations) in 0.01 seconds
Thread count was 32 (of 72 available processors)

Solution count 2: -1.64505 0.614755 
No other solutions better than -1.64505

Optimal solution found (tolerance 1.00e-04)
Best objective -1.645045978473e+00, best bound -1.645045978473e+00, gap 0.0000%

User-callback calls 78, time in user-callback 0.00 sec
Gurobi Optimizer version 9.1.2 build v9.1.2rc0 (linux64)
Thread count: 36 physical cores, 72 logical processors, using up to 32 threads
Optimize a model with 24 rows, 120 columns and 2480 nonzeros
Model fingerprint: 0x206757a2
Model has 100 quadratic constraints
Coefficient statistics:
  Matrix range     [8e-06, 4e+00]
  QMatrix range    [1e+00, 1e+00]
  QLMatrix range   [1e+00, 1e+00]
  Objective range  [6e-03, 1e+00]
  Bounds range     [1e+00, 1e+00]
  RHS range        [1e+00, 1e+00]
Presolve removed 17 rows and 0 columns

Continuous model is non-convex -- solving as a MIP.

Presolve removed 17 rows and 0 columns
Presolve time: 0.00s
Presolved: 407 rows, 120 columns, 1232 nonzeros
Presolved model has 100 bilinear constraint(s)
Variable types: 120 continuous, 0 integer (0 binary)

Root relaxation: objective -8.997838e+00, 138 iterations, 0.00 seconds

    Nodes    |    Current Node    |     Objective Bounds      |     Work
 Expl Unexpl |  Obj  Depth IntInf | Incumbent    BestBd   Gap | It/Node Time

     0     0   -8.99784    0   86          -   -8.99784      -     -    0s
H    0     0                       0.5601319   -8.99784  1706%     -    0s
     0     0   -6.69569    0   90    0.56013   -6.69569  1295%     -    0s
H    0     0                       0.3376009   -6.69569  2083%     -    0s
     0     0   -6.67619    0   90    0.33760   -6.67619  2078%     -    0s
     0     0   -5.78161    0  100    0.33760   -5.78161  1813%     -    0s
H    0     0                      -1.2193080   -5.78161   374%     -    0s
     0     0   -5.64451    0  100   -1.21931   -5.64451   363%     -    0s
     0     0   -5.50196    0  100   -1.21931   -5.50196   351%     -    0s
     0     0   -5.49334    0   91   -1.21931   -5.49334   351%     -    0s
     0     0   -5.40379    0   91   -1.21931   -5.40379   343%     -    0s
     0     0   -5.39804    0   91   -1.21931   -5.39804   343%     -    0s
     0     0   -5.38502    0   91   -1.21931   -5.38502   342%     -    0s
     0     0   -5.38437    0   91   -1.21931   -5.38437   342%     -    0s
     0     0   -5.38308    0   91   -1.21931   -5.38308   341%     -    0s
     0     0   -5.38279    0   91   -1.21931   -5.38279   341%     -    0s
     0     0   -5.38213    0   91   -1.21931   -5.38213   341%     -    0s
H    0     0                      -3.3237751   -5.38213  61.9%     -    0s
H    0     0                      -4.1542079   -5.38213  29.6%     -    0s
H    0     0                      -4.1686296   -5.38213  29.1%     -    0s
     0     2   -5.38213    0   91   -4.16863   -5.38213  29.1%     -    0s
*  607   276              17      -4.1829495   -4.83551  15.6%  32.4    0s
*  769   348              22      -4.2576009   -4.83551  13.6%  29.5    0s
*  971   422              22      -4.3267388   -4.83551  11.8%  26.5    0s
* 1080   518              22      -4.4234537   -4.83551  9.32%  25.0    0s
* 1344   418              23      -4.4240439   -4.72099  6.71%  22.5    0s
* 1345   418              23      -4.4240486   -4.72099  6.71%  22.5    0s
* 1681   448              29      -4.4241131   -4.60250  4.03%  19.2    0s
* 1690   448              30      -4.4296846   -4.60250  3.90%  19.1    0s
* 1897   408              28      -4.4296959   -4.44237  0.29%  17.4    0s
* 1901   408              31      -4.4296971   -4.44237  0.29%  17.4    0s
* 1910   408              26      -4.4303391   -4.44237  0.27%  17.4    0s
* 1923   408              38      -4.4303818   -4.44237  0.27%  17.3    0s
* 2238    17              34      -4.4303944   -4.44237  0.27%  15.3    0s

Cutting planes:
  RLT: 71
  BQP: 17
  PSD: 6

Explored 2603 nodes (34772 simplex iterations) in 0.66 seconds
Thread count was 32 (of 72 available processors)

Solution count 10: -4.43039 -4.43038 -4.43034 ... -4.32674
No other solutions better than -4.43039

Optimal solution found (tolerance 1.00e-04)
Best objective -4.430394382772e+00, best bound -4.430394382772e+00, gap 0.0000%

User-callback calls 5497, time in user-callback 0.00 sec



objective value: -4.430394382772217
objective bound: -4.430394382772217
x_opt: [0.0, 1.0, 1.0, 1.0, 1.0, 0.0, 0.0, 0.0, 0.26844683332847796, 1.0, 0.0, 0.26885416890708747, 1.0, 0.9154052737105286, 1.0, 1.2462634213192675e-5, 0.0, 0.0, -6.57142803150395e-7, 0.5430938320711127]
GUROBI solution time: 0.6561801433563232




